00:00.0 clingo version 5.5.1
00:00.0 Reading from ...ols/../encodings/CTW_nat_optimal_V2.lp ...
30:00.3 UNKNOWN
30:00.153 
30:00.155 TIME LIMIT   : 1
30:00.160 Models       : 0+
30:00.161 Calls        : 1
30:00.161 Time         : 1800.095s (Solving: 0.00s 1st Model: 0.00s Unsat: 0.00s)
30:00.162 CPU Time     : 118.292s
